NAME: bip_20_0
TYPE: TSP
COMMENT: bip_20_0
DIMENSION: 20
EDGE_WEIGHT_TYPE: EUC_2D
NODE_COORD_SECTION
1 57 66
2 65 88
3 62 3
4 76 73
5 4 42
6 16 68
7 29 85
8 90 55
9 98 86
10 18 38
11 442 415
12 415 452
13 414 462
14 447 484
15 462 470
16 496 498
17 400 402
18 438 480
19 461 487
20 450 409
